Optimal - objective value -12.00000000
      0 x_0                        1         0.6459562651857
     17 x_17                       1                       0
     19 x_19                       1                       0
     28 x_28                       1                       0
     41 x_41                       1                       1
     45 x_45                       1         2.25494619923638
     58 x_58                       1         5.38059701492537
     60 x_60                       1                       0
     62 x_62                       1         2.84901076015272
     67 x_67                       1                       0
     81 x_81                       1                       0
     85 x_85                       1                       0
